# Objective value = 72
WA1n 0
WA1p 0
WA2n 1
WA2p 0
WB1n 0
WB1p 0
WB2n 1
WB2p 0
WC1n 0
WC1p 0
WC2n 1
WC2p 0
WD1n 0
WD1p 0
WD2n 0
WD2p 1
WE1n 0
WE1p 0
WE2n 0
WE2p 1
WF1n 0
WF1p 0
WF2n 0
WF2p 1
WG1n 0
WG1p 0
WG2n 0
WG2p 1
WH1n 3
WH1p 0
WH2n 1
WH2p 0
WI1n 3
WI1p 0
WI2n 1
WI2p 0
WJ1n 3
WJ1p 0
WJ2n 1
WJ2p 0
WK1n 0
WK1p 3
WK2n 0
WK2p 1
WL1n 0
WL1p 3
WL2n 0
WL2p 1
WM1n 0
WM1p 3
WM2n 0
WM2p 1
WN1n 0
WN1p 3
WN2n 0
WN2p 1
WO1n 0
WO1p 3
WO2n 0
WO2p 1
WT1n 0
WT1p 16
WT2n 0
WT2p 1
5 7
a 0
b 0
c 0
d 0
e 0
f 0
g 0
h 1
i 0
j 1
k 0
l 1
m 0
n 1
o 0
p 0
q 0
r 0
s 0
t 0
u 1
v 1
w 1
x 1
y 1
z 1
aa 1
ab 1
ac 1
ad 1
ae 1
af 1
